c FILE /home/rafael/Documents/HappySet/MIHS/inputs/happygen/output/graph_scale_free_k2_p0.3_v100_20241127_083756.txt
c SOURCE This is a scale-free graph formed for the happy graph colouring problem.
c DESCRIPTION It was generated using the problem generator of Rhyd Lewis
c
c GRAPH STATS
c Seed                             = 452456750
c Number of Nodes                  = 100
c Number of colours k              = 2
c Number of pre-assignments        = 30
c Number of links per new node     = 5
c Density                          = 0.0979798
c 
c The degrees of nodes 1 to 100, respectively, are as follows 
c [39, 37, 36, 33, 26, 25, 25, 23, 22, 22, 20, 16, 15, 14, 14, 13, 11, 11, 11, 11, 10, 10, 10, 10, 10, 10, 
c  10, 9, 9, 9, 9, 9, 9, 9, 9, 9, 8, 8, 8, 8, 8, 8, 8, 8, 8, 8, 8, 8, 8, 8, 8, 
c  8, 7, 7, 7, 7, 7, 7, 7, 7, 6, 6, 6, 6, 6, 6, 6, 6, 6, 6, 6, 5, 5, 5, 5, 5, 
c  5, 5, 5, 5, 5, 5, 5, 5, 5, 5, 5, 5, 5, 5, 5, 5, 5, 5, 5, 5, 5, 5, 5, 5] 
c  
p edge 100 485 2
e 1 2
e 1 3
e 1 4
e 1 6
e 1 7
e 1 8
e 1 9
e 1 10
e 1 12
e 1 14
e 1 16
e 1 17
e 1 19
e 1 20
e 1 21
e 1 22
e 1 25
e 1 32
e 1 36
e 1 39
e 1 41
e 1 47
e 1 52
e 1 53
e 1 54
e 1 57
e 1 59
e 1 62
e 1 67
e 1 73
e 1 75
e 1 77
e 1 79
e 1 80
e 1 84
e 1 87
e 1 88
e 1 89
e 1 100
e 2 4
e 2 5
e 2 6
e 2 7
e 2 8
e 2 9
e 2 10
e 2 12
e 2 18
e 2 19
e 2 21
e 2 28
e 2 29
e 2 30
e 2 31
e 2 35
e 2 37
e 2 38
e 2 39
e 2 40
e 2 44
e 2 45
e 2 46
e 2 48
e 2 53
e 2 56
e 2 57
e 2 73
e 2 77
e 2 78
e 2 80
e 2 83
e 2 85
e 2 89
e 2 90
e 2 93
e 3 4
e 3 5
e 3 6
e 3 8
e 3 9
e 3 11
e 3 12
e 3 13
e 3 16
e 3 20
e 3 24
e 3 26
e 3 32
e 3 42
e 3 45
e 3 47
e 3 56
e 3 58
e 3 59
e 3 61
e 3 62
e 3 63
e 3 64
e 3 65
e 3 69
e 3 72
e 3 73
e 3 74
e 3 75
e 3 78
e 3 79
e 3 85
e 3 87
e 3 90
e 3 93
e 4 6
e 4 7
e 4 8
e 4 9
e 4 10
e 4 11
e 4 12
e 4 13
e 4 18
e 4 19
e 4 21
e 4 22
e 4 23
e 4 25
e 4 30
e 4 31
e 4 34
e 4 38
e 4 40
e 4 44
e 4 59
e 4 60
e 4 65
e 4 67
e 4 71
e 4 72
e 4 74
e 4 76
e 4 77
e 4 96
e 5 7
e 5 9
e 5 10
e 5 14
e 5 15
e 5 24
e 5 27
e 5 32
e 5 33
e 5 34
e 5 35
e 5 37
e 5 39
e 5 40
e 5 43
e 5 45
e 5 49
e 5 53
e 5 55
e 5 61
e 5 65
e 5 71
e 5 87
e 5 91
e 6 7
e 6 8
e 6 9
e 6 13
e 6 17
e 6 18
e 6 21
e 6 28
e 6 37
e 6 38
e 6 51
e 6 55
e 6 56
e 6 58
e 6 79
e 6 81
e 6 86
e 6 93
e 6 95
e 6 97
e 6 99
e 7 9
e 7 14
e 7 15
e 7 16
e 7 19
e 7 22
e 7 36
e 7 37
e 7 38
e 7 39
e 7 42
e 7 44
e 7 52
e 7 57
e 7 58
e 7 60
e 7 62
e 7 74
e 7 77
e 7 84
e 8 9
e 8 10
e 8 11
e 8 14
e 8 15
e 8 16
e 8 17
e 8 18
e 8 22
e 8 25
e 8 28
e 8 31
e 8 39
e 8 41
e 8 54
e 8 80
e 8 85
e 8 97
e 9 12
e 9 15
e 9 17
e 9 21
e 9 25
e 9 26
e 9 29
e 9 31
e 9 35
e 9 44
e 9 48
e 9 76
e 9 77
e 9 94
e 10 12
e 10 17
e 10 22
e 10 23
e 10 26
e 10 28
e 10 36
e 10 41
e 10 46
e 10 50
e 10 51
e 10 55
e 10 79
e 10 83
e 10 87
e 10 91
e 10 100
e 11 16
e 11 17
e 11 18
e 11 19
e 11 20
e 11 30
e 11 42
e 11 47
e 11 50
e 11 67
e 11 68
e 11 69
e 11 90
e 11 91
e 11 92
e 11 99
e 11 100
e 12 13
e 12 25
e 12 28
e 12 29
e 12 33
e 12 36
e 12 43
e 12 73
e 12 80
e 12 89
e 13 18
e 13 26
e 13 29
e 13 30
e 13 31
e 13 37
e 13 46
e 13 65
e 13 81
e 13 83
e 13 97
e 14 23
e 14 24
e 14 40
e 14 44
e 14 46
e 14 54
e 14 60
e 14 63
e 14 93
e 14 99
e 15 23
e 15 41
e 15 48
e 15 49
e 15 56
e 15 58
e 15 69
e 15 83
e 15 86
e 15 96
e 16 26
e 16 35
e 16 42
e 16 67
e 16 69
e 16 70
e 16 72
e 16 74
e 17 23
e 17 30
e 17 50
e 17 73
e 17 78
e 18 23
e 18 24
e 18 28
e 18 38
e 18 91
e 19 47
e 19 49
e 19 60
e 19 62
e 19 72
e 19 89
e 20 29
e 20 30
e 20 34
e 20 45
e 20 47
e 20 54
e 20 64
e 20 81
e 21 27
e 21 29
e 21 32
e 21 33
e 21 66
e 22 40
e 22 61
e 22 82
e 22 85
e 22 92
e 23 37
e 23 46
e 23 62
e 23 97
e 24 29
e 24 54
e 24 68
e 24 79
e 24 81
e 24 98
e 25 53
e 25 60
e 25 61
e 25 72
e 25 76
e 26 36
e 26 42
e 26 48
e 26 53
e 26 57
e 27 31
e 27 36
e 27 44
e 27 51
e 27 57
e 27 70
e 27 93
e 27 98
e 28 43
e 28 59
e 28 65
e 29 51
e 29 63
e 30 41
e 30 82
e 30 87
e 31 45
e 31 71
e 31 75
e 32 33
e 32 35
e 32 37
e 32 69
e 32 98
e 33 42
e 33 75
e 33 88
e 33 92
e 33 100
e 34 46
e 34 48
e 34 54
e 34 74
e 34 88
e 34 96
e 35 51
e 35 58
e 35 80
e 35 84
e 36 52
e 36 64
e 36 71
e 37 91
e 38 43
e 38 55
e 38 78
e 39 49
e 39 71
e 39 81
e 40 43
e 40 75
e 40 84
e 41 55
e 41 56
e 41 64
e 42 66
e 42 94
e 43 76
e 43 94
e 43 98
e 44 52
e 44 82
e 45 61
e 45 66
e 45 84
e 46 95
e 46 96
e 47 63
e 47 82
e 47 86
e 48 49
e 48 83
e 48 99
e 49 66
e 49 68
e 49 86
e 50 53
e 50 57
e 50 95
e 50 98
e 50 100
e 51 67
e 51 95
e 51 97
e 52 56
e 52 70
e 52 89
e 52 92
e 53 63
e 54 76
e 55 64
e 55 78
e 56 70
e 57 85
e 58 86
e 58 96
e 59 64
e 59 82
e 59 88
e 60 68
e 60 90
e 61 94
e 62 66
e 63 95
e 65 88
e 66 68
e 67 92
e 68 90
e 69 70
e 70 94
e 71 99
n 8 1
n 10 1
n 13 1
n 19 1
n 22 1
n 24 2
n 26 1
n 31 1
n 36 1
n 38 1
n 44 1
n 47 1
n 49 1
n 50 1
n 53 1
n 56 2
n 58 1
n 59 1
n 61 1
n 64 1
n 67 2
n 72 1
n 73 2
n 75 1
n 76 1
n 78 1
n 84 2
n 89 1
n 91 1
n 96 1
